src/RACER/swarm_exploration/utils/lkh_mtsp_solver/resource/amtsp_4.atsp
NAME : amtsp
TYPE : ATSP
DIMENSION : 7
EDGE_WEIGHT_TYPE : EXPLICIT
EDGE_WEIGHT_FORMAT : FULL_MATRIX
EDGE_WEIGHT_SECTION
100000 -100000 100000 100000 100000 100000 100000 
100000 100000 692 838 742 718 100000 
0 0 100000 382 325 335 308 
0 0 382 100000 265 297 478 
0 0 325 265 100000 32 252 
0 0 335 297 32 100000 236 
-100000 100000 308 478 252 236 100000 
