src/RACER/swarm_exploration/utils/lkh_mtsp_solver/resource/amtsp_4.tour
NAME : amtsp.-199031.tour
COMMENT : Length = -199031
COMMENT : Found by LKH [Keld Helsgaun] Wed May 14 17:07:54 2025
TYPE : TOUR
DIMENSION : 4
TOUR_SECTION
1
2
3
4
-1
EOF
